c ren 1 -> 1
c ren 2 -> 2
c ren 3 -> 3
c ren 4 -> 4
c ren 5 -> 5
c ren 6 -> 6
c ren 7 -> 7
c ren 8 -> 8
c ren 9 -> 9
c ren 10 -> 10
c ren 11 -> 11
c ren 12 -> 12
c ren 13 -> 13
c ren 14 -> 14
c ren 15 -> 15
c ren 16 -> 16
c ren 17 -> 17
c ren 18 -> 18
c ren 19 -> 19
c ren 20 -> 20
c ren 21 -> 21
c ren 22 -> 22
c ren 23 -> 23
c ren 24 -> 24
c ren 25 -> 25
c ren 26 -> 26
c ren 27 -> 27
c ren 28 -> 28
c ren 29 -> 29
c ren 30 -> 30
c ren 31 -> 31
c ren 32 -> 32
c ren 60 -> 33
c ren 84 -> 34
c ren 92 -> 35
c ren 93 -> 36
c ren 96 -> 37
c ren 105 -> 38
c ren 107 -> 39
c ren 109 -> 40
c ren 115 -> 41
c ren 120 -> 42
c ren 137 -> 43
c ren 139 -> 44
c ren 144 -> 45
c ren 153 -> 46
c ren 157 -> 47
c ren 168 -> 48
c ren 169 -> 49
c ren 170 -> 50
c ren 171 -> 51
c ren 172 -> 52
c ren 173 -> 53
c ren 174 -> 54
c ren 175 -> 55
c ren 176 -> 56
c ren 177 -> 57
c ren 178 -> 58
c ren 179 -> 59
c ren 180 -> 60
c ren 181 -> 61
c ren 182 -> 62
c ren 183 -> 63
c ren 184 -> 64
c ren 185 -> 65
c ren 186 -> 66
c ren 187 -> 67
c ren 188 -> 68
c ren 189 -> 69
c ren 190 -> 70
c ren 191 -> 71
c ren 192 -> 72
c ren 230 -> 73
c ren 279 -> 74
c ren 289 -> 75
c ren 299 -> 76
c ren 307 -> 77
c ren 311 -> 78
c ren 312 -> 79
c ren 313 -> 80
c ren 314 -> 81
c ren 315 -> 82
c ren 316 -> 83
c ren 317 -> 84
c ren 318 -> 85
c ren 319 -> 86
c ren 320 -> 87
c ren 321 -> 88
c ren 322 -> 89
c ren 323 -> 90
c ren 324 -> 91
p cnf 91 444
a 1 2 3 4 5 6 7 8 9 10 11 12 13 14 15 16 17 18 19 20 21 22 23 24 25 26 27 28 29 30 31 32 57 58 59 60 61 62 63 64 65 66 67 68 69 70 71 72 0
d 48 57 58 0
d 49 69 70 0
d 50 69 70 0
d 51 59 60 0
d 52 65 66 0
d 53 67 68 0
d 54 63 64 0
d 55 71 72 0
d 56 61 62 0
e 33 34 35 36 37 38 39 40 41 42 43 44 45 46 47 73 74 75 76 77 78 79 80 81 82 83 84 85 86 87 88 89 90 91 0
-11 -12 26 28 56 73 0
-25 -26 -27 -28 -73 0
11 -25 -26 -28 46 0
-9 -10 26 -33 0
10 11 12 -25 46 0
11 -27 68 -90 0
-10 -12 25 27 -33 0
-13 -14 -15 31 45 0
-11 -12 25 26 28 -46 0
-15 29 30 32 33 35 42 -55 -78 0
9 -25 33 0
25 26 27 28 -33 0
-12 26 27 28 56 73 0
-11 25 26 27 -33 0
-10 25 26 -33 0
10 12 -25 -27 -73 0
9 11 12 -26 46 0
-11 -12 25 26 -33 0
-11 25 26 27 -46 0
10 11 12 -25 -73 0
10 11 12 26 27 28 56 -68 -90 0
9 10 12 -27 46 0
-11 27 68 -90 0
-9 -10 26 -46 0
9 10 11 -28 -73 0
-10 26 68 -90 0
9 -26 -27 -28 46 0
-9 25 73 0
-10 11 12 -26 27 28 56 -68 -90 0
-1 -20 36 37 -38 -39 41 -42 0
9 11 -26 -28 46 0
10 -26 68 -90 0
-10 -11 25 27 -46 0
9 -26 -27 -28 -73 0
-10 11 -12 -26 27 -28 56 -68 -90 0
-12 25 26 27 -33 0
-10 -11 25 27 -33 0
9 10 11 12 46 0
-25 -26 -27 -28 46 0
9 10 11 -27 -73 0
10 -25 -27 -28 -73 0
12 -28 68 -90 0
10 12 -25 -27 46 0
10 12 -25 -27 -28 33 0
9 10 11 -27 46 0
-10 25 27 28 -33 0
10 11 -25 -27 46 0
9 10 11 12 -28 33 0
-12 25 26 27 28 -46 0
-10 -12 25 27 28 -46 0
-11 26 27 56 73 0
-10 -11 12 -26 -27 28 56 -68 -90 0
10 -11 -12 26 -27 -28 56 -68 -90 0
9 10 11 -27 33 0
9 11 -26 -28 -73 0
-10 -11 -12 28 56 73 0
9 10 11 -28 46 0
9 10 -26 -73 0
-25 -56 -73 0
9 10 11 12 -73 0
9 10 12 -27 -28 33 0
-13 -14 31 32 33 35 42 45 -46 -47 75 -78 0
33 35 42 -45 -55 -78 0
5 7 8 -22 -34 0
-6 -8 21 23 24 34 0
-5 22 23 24 34 -35 0
-5 -7 22 24 34 -35 0
-6 21 22 34 0
6 -22 35 0
-5 -6 -7 23 34 0
-8 21 22 23 34 -35 0
-9 -12 26 27 28 -46 0
-9 26 27 28 -33 0
-5 -7 -8 22 24 34 0
-9 -11 26 28 -33 0
6 -21 -22 -34 0
5 6 7 -23 -34 0
-7 21 22 24 34 -35 0
5 7 -22 -23 -34 0
-5 21 34 0
6 -21 -23 -24 -34 0
-7 -8 21 22 24 34 0
6 7 -21 -24 -34 0
5 6 7 8 -34 0
5 8 -22 -23 -34 0
6 8 -21 -23 -34 0
5 -22 -23 -24 -34 0
7 -21 -22 -23 -34 0
-6 22 35 0
21 22 23 24 34 -35 0
7 -23 35 0
8 -24 35 0
16 -31 -43 -44 69 -91 0
-9 -10 -11 -12 28 -46 0
-6 -7 -8 21 24 34 0
-9 -10 -11 28 -33 0
35 36 37 -39 41 48 49 -53 -73 76 0
-7 23 35 0
-6 -8 21 23 34 -35 0
-5 -6 23 24 34 -35 0
-5 -6 -7 -8 24 34 0
34 -38 -40 -49 -51 -73 74 -76 0
-5 -6 -7 24 34 -35 0
-34 35 0
-3 -36 0
19 -36 0
5 6 -22 -34 0
-8 24 35 0
-3 19 -38 0
-36 -75 0
-2 -37 0
18 -37 0
-5 -6 22 34 0
-5 -7 -8 22 34 -35 0
-2 18 -39 0
-5 -7 22 23 34 0
39 -40 -51 -76 0
4 -38 -39 -40 47 0
1 -17 47 0
-20 -38 -39 -40 47 0
5 6 7 -24 -34 0
-1 17 -40 0
-1 37 38 -47 0
-20 -74 0
4 -74 0
3 38 0
-19 38 0
2 39 0
-18 39 0
1 40 0
-17 40 0
-36 -39 -40 47 0
-4 20 36 37 -38 -39 48 74 0
-37 -40 42 0
34 -35 -38 -40 -51 74 -76 0
34 -38 -40 -49 -51 -53 74 -76 0
39 -74 0
-36 -39 -40 42 0
-4 -41 0
20 -41 0
-9 -11 -12 26 -33 0
-9 -11 26 27 -33 0
17 -20 36 37 -38 -39 41 -42 0
-9 -11 26 27 -46 0
1 -17 42 0
-38 -40 -41 -51 -76 0
-4 17 20 36 37 -47 0
-38 -39 -40 -41 42 0
4 17 36 37 -38 -39 41 -42 0
39 -75 0
-37 -40 47 0
-9 -10 27 28 -33 0
-9 -10 -12 27 28 -46 0
-16 32 34 45 -46 -47 55 -78 0
-15 -16 29 30 33 35 42 -55 -78 0
-15 -16 32 52 54 -69 -91 0
15 -31 35 36 37 -38 -39 -40 41 -43 -44 48 50 -51 53 73 74 75 0
-13 -15 30 32 33 35 42 45 -46 -47 75 -78 0
-1 39 -47 0
-15 31 50 52 54 -75 0
-13 -15 30 31 45 0
-16 31 32 35 36 37 -38 -39 -40 41 48 -50 -51 52 -53 54 -73 74 75 0
14 -30 34 45 -46 -47 55 -78 0
-13 43 45 0
13 -29 -45 0
-15 -16 29 30 32 45 0
-10 -12 27 28 56 73 0
-31 -32 35 36 37 -38 -39 -40 41 -43 -44 48 50 -51 53 73 74 75 0
-13 29 -44 0
-15 31 -77 0
9 12 -26 -27 46 0
-13 -14 -15 -16 32 45 0
15 16 -43 -44 -45 0
-15 31 -75 -78 0
-9 -10 -12 27 -33 0
14 43 0
-30 43 0
-16 31 32 50 52 54 -75 0
13 44 0
-29 44 0
12 -25 -26 -27 -28 33 0
9 11 -26 -27 -73 0
-10 -11 25 28 -33 0
-15 -16 32 50 52 54 -75 0
14 -30 -44 -45 0
-10 -11 27 56 73 0
15 16 35 36 37 -38 -39 -40 41 -43 -44 48 50 -51 -53 -73 74 75 0
-34 36 37 -39 41 48 76 0
-13 -14 -15 -16 33 35 42 45 -46 -47 75 -78 0
44 45 0
-15 -16 32 35 36 37 -38 -39 -40 41 48 -50 -51 52 53 54 73 74 75 0
43 -75 -78 0
9 12 -26 -27 -28 33 0
-14 -15 -16 29 33 35 42 -55 -78 0
16 -32 -77 0
-16 32 -75 -78 0
-13 -15 -16 30 33 35 42 -55 -78 0
14 -30 -75 -78 0
11 12 -25 -26 -28 33 0
9 -56 -73 0
9 -25 46 0
-33 34 -46 -47 55 -78 0
-6 -7 21 24 34 -35 0
40 -42 0
-31 -32 35 36 37 -38 -39 -40 41 -43 -44 48 50 -51 -53 -73 74 75 0
47 -75 -78 0
34 -38 -40 -51 53 -73 74 -76 0
34 45 -46 -47 -76 -78 0
-42 -75 -78 0
35 42 46 -55 -78 0
33 35 42 -45 76 -78 0
15 -32 35 36 37 -38 -39 -40 41 -43 -44 48 50 -51 -53 -73 74 75 0
15 16 35 36 37 -38 -39 -40 41 -43 -44 48 50 -51 53 73 74 75 0
-15 16 -31 32 52 54 77 0
15 -31 -75 -78 0
-16 31 32 35 36 37 -38 -39 -40 41 48 -50 -51 52 53 54 73 74 75 0
-15 31 34 45 -46 -47 55 -78 0
47 -55 -78 0
-34 42 -55 -78 0
-14 -15 29 32 33 35 42 45 -46 -47 75 -78 0
9 11 12 -26 -73 0
-42 -47 -76 -78 0
13 -29 -75 -78 0
-13 -14 -16 31 32 45 0
-9 -10 -11 27 -33 0
-9 -10 -11 27 -46 0
-13 -14 -15 32 33 35 42 -46 -55 -78 0
15 -31 -43 -44 -45 0
-33 -75 -78 0
11 12 -25 -26 -73 0
12 -25 -26 -27 46 0
-10 -11 -12 25 28 -46 0
-15 29 30 32 33 35 42 45 -46 -47 75 -78 0
-16 31 32 52 54 -69 -91 0
-14 30 -43 0
11 -25 -26 -27 46 0
11 -25 -26 -27 33 0
-10 -11 -12 25 -33 0
17 37 38 -47 0
43 50 54 -75 0
15 -32 35 36 37 -38 -39 -40 41 -43 -44 48 50 -51 53 73 74 75 0
-15 31 35 36 37 -38 -39 -40 41 48 -50 -51 52 -53 54 -73 74 75 0
-15 31 52 54 -69 -91 0
16 -31 -43 -44 -50 -75 0
-31 -32 -43 -44 -45 0
-13 -14 -15 32 33 35 42 45 -46 -47 75 -78 0
-31 -32 -43 -44 -50 -75 0
-43 -44 -52 69 -91 0
35 36 37 -38 -39 -40 41 -43 -44 48 50 -51 -52 53 73 74 75 0
15 -31 34 45 -46 -47 55 -78 0
-13 -15 -16 30 32 45 0
15 -31 35 36 37 -38 -39 -40 41 -43 -44 48 50 -51 -53 -73 74 75 0
44 -69 -91 0
44 50 -75 0
15 -32 -43 -44 -50 -75 0
35 36 37 -38 -39 -40 41 -44 48 50 -51 -53 -54 -73 74 75 0
35 36 37 -38 -39 -40 41 43 48 -50 -51 53 54 73 74 75 0
35 36 37 -38 -39 -40 41 44 48 -50 -51 -53 -73 74 75 0
-13 -14 -15 -16 33 35 42 -55 -78 0
-15 31 35 36 37 -38 -39 -40 41 48 -50 -51 52 53 54 73 74 75 0
-16 32 -77 0
10 -25 -26 33 0
10 -25 -26 46 0
10 -11 12 26 -27 28 56 -68 -90 0
-14 -15 -16 29 33 35 42 45 -46 -47 75 -78 0
10 11 -25 -28 -73 0
12 -25 -26 -27 -73 0
29 43 45 0
-10 25 26 -46 0
-15 -16 -31 -32 52 54 77 0
9 10 -27 -28 46 0
-13 -15 -16 30 33 35 42 45 -46 -47 75 -78 0
-10 -11 -12 -26 -27 -28 56 -68 -90 0
10 11 -25 -27 33 0
10 11 12 -25 -28 33 0
10 -25 -27 -28 46 0
-14 -15 -16 29 32 45 0
9 10 -27 -28 -73 0
9 10 12 -27 -73 0
10 11 -25 -27 -73 0
10 -25 -26 -73 0
11 -25 -26 -27 -73 0
9 12 -26 -27 -73 0
15 -31 -43 -44 69 -91 0
-33 34 -46 -47 -76 -78 0
9 11 12 -26 -28 33 0
-12 28 68 -90 0
35 36 37 -38 -39 -40 41 43 48 -50 -51 -53 54 -73 74 75 0
16 -31 -43 -44 -45 0
34 43 45 -46 -47 55 -78 0
-9 25 -46 0
-11 25 26 28 -33 0
-43 -44 -50 -52 -75 0
35 36 37 -38 -39 -40 41 44 48 -50 -51 53 73 74 75 0
-53 73 -75 0
15 -32 -43 -44 -45 0
53 -73 -75 0
-14 -15 29 32 33 35 42 -55 -78 0
-13 -16 30 31 33 35 42 45 -46 -47 75 -78 0
-45 -75 -78 0
5 6 -23 -24 -34 0
5 -21 -34 0
5 7 -22 -24 -34 0
-6 21 23 24 34 -35 0
-5 -6 -8 23 24 34 0
6 7 8 -21 -34 0
-8 21 22 23 24 34 0
16 -31 35 36 37 -38 -39 -40 41 -43 -44 48 50 -51 53 73 74 75 0
-9 -10 -11 -12 -33 0
-5 -6 -8 23 34 -35 0
-9 -11 -12 26 28 -46 0
7 -21 -22 -24 -34 0
-6 -7 -8 21 34 -35 0
5 6 8 -23 -34 0
-6 -7 21 23 34 0
-21 -22 -23 -24 -34 0
6 7 -21 -23 -34 0
5 -21 35 0
-5 -6 -7 -8 34 -35 0
-7 -8 21 22 34 -35 0
3 -19 36 0
-1 -4 20 36 37 -47 0
2 -18 37 0
-5 -8 22 23 34 -35 0
-5 -8 22 23 24 34 0
7 8 -21 -22 -34 0
51 -75 0
15 16 -43 -44 69 -91 0
-37 -40 -51 -76 0
37 38 -39 48 76 0
17 39 -47 0
-48 -74 0
-1 4 36 37 -38 -39 41 -42 0
16 -31 35 36 37 -38 -39 -40 41 -43 -44 48 50 -51 -53 -73 74 75 0
38 -74 0
-36 -74 0
-74 76 0
4 -20 41 0
35 36 37 -39 41 48 53 73 76 0
-9 -12 26 27 -33 0
-4 20 -38 -40 -51 74 -76 0
48 51 76 0
15 -16 31 -32 52 54 77 0
-31 -32 -43 -44 69 -91 0
-48 -75 0
-15 -16 29 30 33 35 42 45 -46 -47 75 -78 0
16 -32 34 45 -46 -47 55 -78 0
40 76 0
-13 -15 30 32 33 35 42 -46 -55 -78 0
-74 -75 0
35 36 37 -38 -39 -40 41 -43 -44 48 50 -51 -52 -53 -73 74 75 0
8 -21 -22 -23 -34 0
-35 -75 0
16 -32 -75 -78 0
-15 -16 32 35 36 37 -38 -39 -40 41 48 -50 -51 52 -53 54 -73 74 75 0
-40 -48 -76 0
15 16 -43 -44 -50 -75 0
-37 -74 0
-41 -75 0
-13 -16 30 31 33 35 42 -55 -78 0
40 -47 0
38 -75 0
40 -75 0
-36 -40 -51 -76 0
-37 -75 0
34 -35 -47 -76 -78 0
47 76 -78 0
34 -38 -40 -51 -53 73 74 -76 0
11 12 -25 -26 46 0
10 11 -25 -28 46 0
9 11 -26 -27 33 0
9 10 -26 33 0
-10 26 56 73 0
9 10 -26 46 0
-14 29 31 32 33 35 42 45 -46 -47 75 -78 0
35 36 37 -38 -39 -40 41 -44 48 50 -51 53 -54 73 74 75 0
11 -25 -26 -28 -73 0
15 -31 -43 -44 -50 -75 0
-52 -77 0
-54 -77 0
13 -29 34 -46 -47 55 -78 0
-42 -47 55 -78 0
35 42 46 76 -78 0
34 -35 -47 55 -78 0
-7 21 22 23 34 0
46 -75 -78 0
-34 42 76 -78 0
-1 -57 -79 0
-16 29 30 31 33 35 42 -55 -78 0
-14 29 31 32 33 35 42 -55 -78 0
1 57 -79 0
-17 -58 -80 0
-16 29 30 31 32 45 0
29 30 31 32 33 35 42 -55 -78 0
17 58 -80 0
-2 -59 -81 0
-16 29 30 31 33 35 42 45 -46 -47 75 -78 0
2 59 -81 0
-18 -60 -82 0
29 30 31 32 33 35 42 45 -46 -47 75 -78 0
-14 -16 29 31 32 45 0
18 60 -82 0
-9 -61 -83 0
-14 -15 29 31 45 0
9 61 -83 0
-25 -62 -84 0
-13 -14 31 32 33 35 42 -46 -55 -78 0
-13 -14 -16 31 33 35 42 -55 -78 0
25 62 -84 0
-13 -63 -85 0
-13 -16 30 31 32 45 0
13 63 -85 0
-29 -64 -86 0
29 64 -86 0
-14 -65 -87 0
-15 29 30 31 45 0
-13 -14 -16 31 33 35 42 45 -46 -47 75 -78 0
14 65 -87 0
-30 -66 -88 0
-13 30 31 32 33 35 42 45 -46 -47 75 -78 0
-13 30 31 32 33 35 42 -46 -55 -78 0
30 66 -88 0
-67 -73 -89 0
-14 -16 29 31 33 35 42 -55 -78 0
-14 -16 29 31 33 35 42 45 -46 -47 75 -78 0
67 73 -89 0
10 11 -12 26 27 -28 56 -68 -90 0
9 11 -26 -27 46 0
-9 25 -33 0
43 54 -69 -91 0
15 -31 -77 0
-70 -71 72 75 -76 -77 78 79 80 81 82 83 84 85 86 87 88 89 90 91 0
70 71 72 75 76 77 78 79 80 81 82 83 84 85 86 87 88 89 90 91 0
-70 71 -72 -75 76 -77 78 79 80 81 82 83 84 85 86 87 88 89 90 91 0
-70 -71 -72 -75 -76 -77 78 79 80 81 82 83 84 85 86 87 88 89 90 91 0
70 -71 -72 -75 -76 77 78 79 80 81 82 83 84 85 86 87 88 89 90 91 0
-44 -54 69 -91 0
70 -71 72 75 -76 77 78 79 80 81 82 83 84 85 86 87 88 89 90 91 0
-70 71 72 75 76 -77 78 79 80 81 82 83 84 85 86 87 88 89 90 91 0
-56 68 -90 0
15 16 31 32 52 54 77 0
-44 -50 -54 -75 0
70 71 -72 -75 76 77 78 79 80 81 82 83 84 85 86 87 88 89 90 91 0
15 -32 -43 -44 69 -91 0
